; Options: -in -smt2
(set-option :produce-unsat-assumptions true)

(declare-fun start!2885 () Bool)

(assert start!2885)

(declare-fun b!15655 () Bool)

(declare-fun res!12250 () Bool)

(declare-fun e!8925 () Bool)

(assert (=> b!15655 (=> (not res!12250) (not e!8925))))

(declare-datatypes ((array!1327 0))(
  ( (array!1328 (arr!583 (Array (_ BitVec 32) (_ FloatingPoint 11 53))) (size!583 (_ BitVec 32))) )
))
(declare-fun q!79 () array!1327)

(declare-fun j!78 () (_ BitVec 32))

(declare-fun P!3 ((_ FloatingPoint 11 53)) Bool)

(assert (=> b!15655 (= res!12250 (P!3 (select (arr!583 q!79) (bvsub j!78 #b00000000000000000000000000000001))))))

(declare-fun res!12247 () Bool)

(declare-fun e!8923 () Bool)

(assert (=> start!2885 (=> (not res!12247) (not e!8923))))

(declare-fun jz!49 () (_ BitVec 32))

(assert (=> start!2885 (= res!12247 (and (bvsle #b00000000000000000000000000000010 jz!49) (bvslt jz!49 #b00000000000000000000000000010011)))))

(assert (=> start!2885 e!8923))

(assert (=> start!2885 true))

(declare-datatypes ((array!1329 0))(
  ( (array!1330 (arr!584 (Array (_ BitVec 32) (_ BitVec 32))) (size!584 (_ BitVec 32))) )
))
(declare-fun iq!146 () array!1329)

(declare-fun array_inv!531 (array!1329) Bool)

(assert (=> start!2885 (array_inv!531 iq!146)))

(declare-fun array_inv!532 (array!1327) Bool)

(assert (=> start!2885 (array_inv!532 q!79)))

(declare-fun b!15656 () Bool)

(declare-fun res!12248 () Bool)

(assert (=> b!15656 (=> (not res!12248) (not e!8923))))

(declare-fun z!100 () (_ FloatingPoint 11 53))

(assert (=> b!15656 (= res!12248 (and (bvsle #b00000000000000000000000000000000 j!78) (bvsle j!78 jz!49) (fp.leq (fp #b0 #b00000000000 #b0000000000000000000000000000000000000000000000000000) z!100) (fp.leq z!100 (fp #b0 #b10000110001 #b0100000000000000000000010011111111111111111111111100))))))

(declare-fun b!15657 () Bool)

(declare-fun lt!8135 () (_ FloatingPoint 11 53))

(declare-fun lt!8136 () (_ BitVec 32))

(assert (=> b!15657 (= e!8925 false)))

(assert (=> b!15657 (= lt!8136 (bvsub j!78 #b00000000000000000000000000000001))))

(declare-fun b!15658 () Bool)

(declare-fun res!12245 () Bool)

(assert (=> b!15658 (=> (not res!12245) (not e!8925))))

(assert (=> b!15658 (= res!12245 (and (fp.leq (fp #b0 #b00000000000 #b0000000000000000000000000000000000000000000000000000) lt!8135) (fp.leq lt!8135 (fp #b0 #b10000011001 #b0100000000000000000000010000000000000000000000000000))))))

(declare-fun b!15659 () Bool)

(declare-fun res!12249 () Bool)

(assert (=> b!15659 (=> (not res!12249) (not e!8923))))

(declare-fun iqInv!0 (array!1329) Bool)

(assert (=> b!15659 (= res!12249 (iqInv!0 iq!146))))

(declare-fun b!15660 () Bool)

(declare-fun res!12243 () Bool)

(assert (=> b!15660 (=> (not res!12243) (not e!8923))))

(declare-fun qInv!0 (array!1327) Bool)

(assert (=> b!15660 (= res!12243 (qInv!0 q!79))))

(declare-fun b!15661 () Bool)

(declare-fun res!12244 () Bool)

(assert (=> b!15661 (=> (not res!12244) (not e!8923))))

(assert (=> b!15661 (= res!12244 (bvsgt j!78 #b00000000000000000000000000000000))))

(declare-fun b!15662 () Bool)

(assert (=> b!15662 (= e!8923 e!8925)))

(declare-fun res!12246 () Bool)

(assert (=> b!15662 (=> (not res!12246) (not e!8925))))

(declare-fun QInt!0 ((_ BitVec 32)) Bool)

(assert (=> b!15662 (= res!12246 (QInt!0 (select (store (arr!584 iq!146) (bvsub jz!49 j!78) (ite (fp.isNaN (fp.sub roundNearestTiesToEven z!100 (fp.mul roundNearestTiesToEven (fp #b0 #b10000010111 #b0000000000000000000000000000000000000000000000000000) lt!8135))) #b00000000000000000000000000000000 (ite (fp.gt (fp.sub roundNearestTiesToEven z!100 (fp.mul roundNearestTiesToEven (fp #b0 #b10000010111 #b0000000000000000000000000000000000000000000000000000) lt!8135)) ((_ to_fp 11 53) roundTowardZero #b01111111111111111111111111111111)) #b01111111111111111111111111111111 (ite (fp.lt (fp.sub roundNearestTiesToEven z!100 (fp.mul roundNearestTiesToEven (fp #b0 #b10000010111 #b0000000000000000000000000000000000000000000000000000) lt!8135)) ((_ to_fp 11 53) roundTowardZero #b10000000000000000000000000000000)) #b10000000000000000000000000000000 ((_ fp.to_sbv 32) roundTowardZero (fp.sub roundNearestTiesToEven z!100 (fp.mul roundNearestTiesToEven (fp #b0 #b10000010111 #b0000000000000000000000000000000000000000000000000000) lt!8135))))))) (bvsub jz!49 j!78))))))

(assert (=> b!15662 (= lt!8135 ((_ to_fp 11 53) roundNearestTiesToEven (ite (fp.isNaN (fp.mul roundNearestTiesToEven (fp #b0 #b01111100111 #b0000000000000000000000000000000000000000000000000000) z!100)) #b00000000000000000000000000000000 (ite (fp.gt (fp.mul roundNearestTiesToEven (fp #b0 #b01111100111 #b0000000000000000000000000000000000000000000000000000) z!100) ((_ to_fp 11 53) roundTowardZero #b01111111111111111111111111111111)) #b01111111111111111111111111111111 (ite (fp.lt (fp.mul roundNearestTiesToEven (fp #b0 #b01111100111 #b0000000000000000000000000000000000000000000000000000) z!100) ((_ to_fp 11 53) roundTowardZero #b10000000000000000000000000000000)) #b10000000000000000000000000000000 ((_ fp.to_sbv 32) roundTowardZero (fp.mul roundNearestTiesToEven (fp #b0 #b01111100111 #b0000000000000000000000000000000000000000000000000000) z!100)))))))))

(assert (= (and start!2885 res!12247) b!15660))

(assert (= (and b!15660 res!12243) b!15656))

(assert (= (and b!15656 res!12248) b!15659))

(assert (= (and b!15659 res!12249) b!15661))

(assert (= (and b!15661 res!12244) b!15662))

(assert (= (and b!15662 res!12246) b!15658))

(assert (= (and b!15658 res!12245) b!15655))

(assert (= (and b!15655 res!12250) b!15657))

(declare-fun m!21771 () Bool)

(assert (=> b!15662 m!21771))

(declare-fun m!21773 () Bool)

(assert (=> b!15662 m!21773))

(assert (=> b!15662 m!21773))

(declare-fun m!21775 () Bool)

(assert (=> b!15662 m!21775))

(declare-fun m!21777 () Bool)

(assert (=> b!15657 m!21777))

(declare-fun m!21779 () Bool)

(assert (=> b!15659 m!21779))

(assert (=> b!15655 m!21777))

(assert (=> b!15655 m!21777))

(declare-fun m!21781 () Bool)

(assert (=> b!15655 m!21781))

(declare-fun m!21783 () Bool)

(assert (=> b!15660 m!21783))

(declare-fun m!21785 () Bool)

(assert (=> start!2885 m!21785))

(declare-fun m!21787 () Bool)

(assert (=> start!2885 m!21787))

(check-sat (not start!2885) (not b!15660) (not b!15655) (not b!15662) (not b!15659))
(check-sat)
